p cnf 130 407
2 1 0
-2 -1 0
4 3 0
-4 -3 0
6 5 0
-6 -5 0
8 7 0
-8 -7 0
10 9 0
-10 -9 0
12 -11 -11 0
-12 11 0
-12 11 0
14 -1 -13 0
-14 1 0
-14 13 0
16 -2 -15 0
-16 2 0
-16 15 0
18 -2 -17 -11 0
-18 2 0
-18 17 0
-18 11 0
20 -1 -11 -19 0
-20 1 0
-20 11 0
-20 19 0
22 -21 -21 0
-22 21 0
-22 21 0
23 -3 -13 0
-23 3 0
-23 13 0
24 -4 -15 0
-24 4 0
-24 15 0
25 -21 -4 -17 0
-25 21 0
-25 4 0
-25 17 0
26 -21 -3 -19 0
-26 21 0
-26 3 0
-26 19 0
28 -27 -27 0
-28 27 0
-28 27 0
29 -5 -13 0
-29 5 0
-29 13 0
30 -6 -15 0
-30 6 0
-30 15 0
31 -27 -6 -17 0
-31 27 0
-31 6 0
-31 17 0
32 -27 -3 -19 0
-32 27 0
-32 3 0
-32 19 0
34 -33 -33 0
-34 33 0
-34 33 0
35 -7 -13 0
-35 7 0
-35 13 0
36 -8 -15 0
-36 8 0
-36 15 0
37 -33 -8 -17 0
-37 33 0
-37 8 0
-37 17 0
38 -33 -7 -19 0
-38 33 0
-38 7 0
-38 19 0
39 -12 -14 -16 0
-39 12 0
-39 14 0
-39 16 0
40 -18 -20 0
-40 18 0
-40 20 0
41 -22 -23 -24 0
-41 22 0
-41 23 0
-41 24 0
42 -25 -26 0
-42 25 0
-42 26 0
43 -28 -29 -30 0
-43 28 0
-43 29 0
-43 30 0
44 -31 -32 0
-44 31 0
-44 32 0
45 -34 -35 -36 0
-45 34 0
-45 35 0
-45 36 0
46 -37 -38 0
-46 37 0
-46 38 0
-47 -39 -40 0
-47 39 40 0
47 -39 40 0
47 39 -40 0
-48 -41 -42 0
-48 41 42 0
48 -41 42 0
48 41 -42 0
-49 -43 -44 0
-49 43 44 0
49 -43 44 0
49 43 -44 0
-50 -45 -46 0
-50 45 46 0
50 -45 46 0
50 45 -46 0
-52 -10 -51 0
52 10 0
52 51 0
53 -10 -39 0
-53 10 0
-53 39 0
54 -10 -51 -40 0
-54 10 0
-54 51 0
-54 40 0
55 -10 -41 0
-55 10 0
-55 41 0
56 -10 -42 -39 0
-56 10 0
-56 42 0
-56 39 0
57 -10 -51 -42 -40 0
-57 10 0
-57 51 0
-57 42 0
-57 40 0
58 -10 -43 0
-58 10 0
-58 43 0
59 -10 -44 -41 0
-59 10 0
-59 44 0
-59 41 0
60 -10 -39 -42 -44 0
-60 10 0
-60 39 0
-60 42 0
-60 44 0
61 -10 -51 -40 -44 -42 0
-61 10 0
-61 51 0
-61 40 0
-61 44 0
-61 42 0
62 -53 -54 0
-62 53 0
-62 54 0
63 -55 -56 -57 0
-63 55 0
-63 56 0
-63 57 0
64 -58 -59 -60 -61 0
-64 58 0
-64 59 0
-64 60 0
-64 61 0
-65 -47 -52 0
-65 47 52 0
65 -47 52 0
65 47 -52 0
-66 -48 -62 0
-66 48 62 0
66 -48 62 0
66 48 -62 0
-67 -49 -63 0
-67 49 63 0
67 -49 63 0
67 49 -63 0
-68 -50 -64 0
-68 50 64 0
68 -50 64 0
68 50 -64 0
69 1 0
-69 -1 0
70 3 0
-70 -3 0
71 5 0
-71 -5 0
72 7 0
-72 -7 0
73 9 0
-73 -9 0
74 -11 -11 0
-74 11 0
-74 11 0
75 -1 -13 0
-75 1 0
-75 13 0
76 -2 -15 0
-76 2 0
-76 15 0
77 -2 -17 -11 0
-77 2 0
-77 17 0
-77 11 0
78 -1 -11 -19 0
-78 1 0
-78 11 0
-78 19 0
80 -79 -79 0
-80 79 0
-80 79 0
81 -3 -13 0
-81 3 0
-81 13 0
82 -4 -15 0
-82 4 0
-82 15 0
83 -79 -4 -17 0
-83 79 0
-83 4 0
-83 17 0
84 -79 -3 -19 0
-84 79 0
-84 3 0
-84 19 0
85 -27 -27 0
-85 27 0
-85 27 0
86 -5 -13 0
-86 5 0
-86 13 0
87 -6 -15 0
-87 6 0
-87 15 0
88 -27 -6 -17 0
-88 27 0
-88 6 0
-88 17 0
89 -27 -5 -19 0
-89 27 0
-89 5 0
-89 19 0
90 -33 -33 0
-90 33 0
-90 33 0
91 -7 -13 0
-91 7 0
-91 13 0
92 -8 -15 0
-92 8 0
-92 15 0
93 -33 -8 -17 0
-93 33 0
-93 8 0
-93 17 0
94 -33 -7 -19 0
-94 33 0
-94 7 0
-94 19 0
95 -74 -75 -76 0
-95 74 0
-95 75 0
-95 76 0
96 -77 -78 0
-96 77 0
-96 78 0
97 -80 -81 -82 0
-97 80 0
-97 81 0
-97 82 0
98 -83 -84 0
-98 83 0
-98 84 0
99 -85 -86 -87 0
-99 85 0
-99 86 0
-99 87 0
100 -88 -89 0
-100 88 0
-100 89 0
101 -90 -91 -92 0
-101 90 0
-101 91 0
-101 92 0
102 -93 -94 0
-102 93 0
-102 94 0
-103 -95 -96 0
-103 95 96 0
103 -95 96 0
103 95 -96 0
-104 -97 -98 0
-104 97 98 0
104 -97 98 0
104 97 -98 0
-105 -99 -100 0
-105 99 100 0
105 -99 100 0
105 99 -100 0
-106 -101 -102 0
-106 101 102 0
106 -101 102 0
106 101 -102 0
-107 -73 -51 0
107 73 0
107 51 0
108 -73 -95 0
-108 73 0
-108 95 0
109 -73 -51 -96 0
-109 73 0
-109 51 0
-109 96 0
110 -73 -97 0
-110 73 0
-110 97 0
111 -73 -98 -95 0
-111 73 0
-111 98 0
-111 95 0
112 -73 -51 -98 -96 0
-112 73 0
-112 51 0
-112 98 0
-112 96 0
113 -73 -99 0
-113 73 0
-113 99 0
114 -73 -100 -97 0
-114 73 0
-114 100 0
-114 97 0
115 -73 -95 -98 -100 0
-115 73 0
-115 95 0
-115 98 0
-115 100 0
116 -73 -51 -96 -100 -98 0
-116 73 0
-116 51 0
-116 96 0
-116 100 0
-116 98 0
117 -108 -109 0
-117 108 0
-117 109 0
118 -110 -111 -112 0
-118 110 0
-118 111 0
-118 112 0
119 -113 -114 -115 -116 0
-119 113 0
-119 114 0
-119 115 0
-119 116 0
-120 -103 -107 0
-120 103 107 0
120 -103 107 0
120 103 -107 0
-121 -104 -117 0
-121 104 117 0
121 -104 117 0
121 104 -117 0
-122 -105 -118 0
-122 105 118 0
122 -105 118 0
122 105 -118 0
-123 -106 -119 0
-123 106 119 0
123 -106 119 0
123 106 -119 0
-124 -65 -120 0
-124 65 120 0
124 -65 120 0
124 65 -120 0
-125 -66 -121 0
-125 66 121 0
125 -66 121 0
125 66 -121 0
-126 -67 -122 0
-126 67 122 0
126 -67 122 0
126 67 -122 0
-127 -68 -123 0
-127 68 123 0
127 -68 123 0
127 68 -123 0
-128 124 125 0
128 -124 0
128 -125 0
-129 128 126 0
129 -128 0
129 -126 0
-130 129 127 0
130 -129 0
130 -127 0
-21 0
130 0